% Número total de personas
n = 100;

% Número de opiniones posibles
m = 5;

% Distribución inicial de personas por opinión
p = [50, 0, 0, 0, 50];

% Valores de las opiniones
v = [0.261, 0.508, 0.658, 0.742, 0.949];

% Costos extras al mover a opiniones vacías
ce = [16.589, 16.532, 13.670, 14.616, 0.291];

% Matriz de costos de mover de una opinión a otra
C = array2d(1..5, 1..5,
  [
    0.000,    2.333,    1.170,    1.181,    1.850,
    4.770,    0.000,    0.223,    0.410,    5.109,
    1.475,    2.965,    0.000,    5.207,    0.792,
    4.246,    4.061,    4.267,    0.000,    2.966,
    5.535,    0.880,    0.765,    0.621,    0.000
  ]);

% Costo total máximo permitido
C_max = 80.760;

% Número máximo de movimientos permitidos
M_max = 20;
